c .nnodes 80
c .nvars 193
c .nsuppvars 128
c .ids  0 1 2 3 4 5 6 7 8 9 10 11 12 13 14 15 16 17 18 19 20 21 22 23 24 25 26 27 28 29 30 31 32 33 34 35 36 37 38 39 40 41 42 43 44 45 46 47 48 49 50 51 52 53 54 55 56 57 58 59 60 61 62 63 64 65 66 67 68 69 70 71 72 73 74 75 76 77 78 79 80 81 82 83 84 85 86 87 88 89 90 91 92 93 94 95 96 97 98 99 100 101 102 103 104 105 106 107 108 109 110 111 112 113 114 115 116 117 118 119 120 121 122 123 124 125 126 127 
c .cnfids  227 230 231 232 238 293 294 224 239 244 223 307 226 233 342 225 341 330 331 334 242 317 329 335 305 243 245 219 306 229 235 241 247 218 271 308 228 234 321 281 240 301 319 278 302 216 217 254 266 272 220 276 282 309 246 316 318 273 283 236 237 328 280 291 270 274 315 292 310 215 265 222 339 340 256 258 275 279 311 269 221 297 312 253 255 285 298 257 251 252 277 320 299 300 248 267 284 249 268 314 338 295 332 333 336 296 250 303 313 262 325 264 263 326 304 259 327 322 261 324 260 323 337 290 286 287 289 288 
c .nroots 1
c .rootids 2
p cnf 408 1018
3 341 4 -163 -193 0
3 -341 -4 -163 -193 0
-3 193 0
-3 -341 4 0
-3 163 0
-3 341 -4 0
4 -342 -5 0
4 342 -149 -154 0
-4 342 149 0
-4 -342 5 0
-4 342 154 0
5 -6 -27 0
5 19 24 -27 0
-5 27 0
-5 6 -19 0
-5 6 -24 0
6 -7 -8 0
-6 7 0
-6 8 0
7 286 -287 -288 0
7 -286 287 289 0
7 -286 287 288 0
-7 -287 288 0
-7 -286 -288 -289 0
-7 -286 -287 0
-7 286 287 0
8 9 -13 17 0
-8 -9 0
-8 13 0
-8 -17 0
9 -10 -12 0
9 10 12 0
-9 10 -12 0
-9 -10 12 0
10 289 -290 0
10 288 -290 -11 0
-10 290 0
-10 -289 11 0
-10 -288 -289 0
11 286 287 0
-11 -286 0
-11 -287 0
12 -286 288 0
12 -287 288 0
-12 -288 0
-12 286 287 0
13 -14 16 0
13 -15 16 0
13 286 16 0
-13 -16 0
-13 -286 14 15 0
14 -287 -288 0
-14 287 0
-14 288 0
15 287 288 -290 0
15 287 -288 289 0
15 287 288 -289 0
-15 -287 0
-15 -288 -289 0
-15 288 289 290 0
16 286 -287 -288 0
16 286 -288 289 0
16 286 287 288 -289 0
-16 -287 288 0
-16 288 289 0
-16 -286 0
-16 287 -288 -289 0
17 -287 -18 0
17 287 289 18 0
17 -287 -289 0
17 286 289 -18 0
-17 287 -289 0
-17 -287 289 18 0
-17 -286 287 -18 0
18 288 -290 0
-18 -288 0
-18 290 0
19 -257 -20 -22 0
19 -20 22 23 0
-19 20 0
-19 22 -23 0
-19 257 -22 0
20 -7 -13 -21 0
-20 7 0
-20 13 0
-20 21 0
21 9 -17 0
-21 -9 0
-21 17 0
22 337 -338 0
-22 -337 0
-22 338 0
23 -257 -320 0
23 257 320 0
-23 257 -320 0
-23 -257 320 0
24 20 23 25 0
24 -257 20 -25 0
-24 -20 0
-24 257 -25 0
-24 -23 25 0
25 -337 -26 0
-25 337 0
-25 26 0
26 -7 9 13 17 0
-26 -17 0
-26 -13 0
-26 7 0
-26 -9 0
27 28 -32 -45 -137 0
-27 -28 0
-27 137 0
-27 45 0
-27 32 0
28 -265 -25 30 0
28 25 29 30 0
-28 -30 0
-28 265 -25 0
-28 25 -29 0
29 -265 -328 0
29 265 328 0
-29 265 -328 0
-29 -265 328 0
30 13 -21 -31 0
-30 31 0
-30 21 0
-30 -13 0
31 286 287 -289 0
31 286 -287 288 0
31 286 287 -288 0
-31 -286 0
-31 -287 -288 0
-31 287 288 289 0
32 -38 -39 0
32 -33 43 0
32 -33 -39 0
32 -38 43 0
-32 39 -43 0
-32 33 38 0
33 20 26 -35 0
33 20 -26 -34 0
-33 -20 0
-33 -26 34 0
-33 26 35 0
34 274 275 338 0
34 274 275 -337 0
34 274 -275 337 -338 0
-34 -275 -337 0
-34 -275 338 0
-34 -274 0
-34 275 337 -338 0
35 36 -37 0
-35 -36 0
-35 37 0
36 -275 337 338 0
36 275 337 -338 0
-36 -337 0
-36 -275 -338 0
-36 275 338 0
37 -274 -337 0
37 274 337 0
-37 274 -337 0
-37 -274 337 0
38 -274 -337 -20 0
38 274 275 337 -20 0
-38 -275 337 0
-38 274 -337 0
-38 20 0
-38 -274 337 0
39 -279 26 -40 -42 0
-39 42 0
-39 279 0
-39 40 0
-39 -26 0
40 -41 -8 0
-40 41 0
-40 8 0
41 -286 -287 0
41 -286 -288 -289 0
-41 286 0
-41 287 289 0
-41 287 288 0
42 295 296 -339 0
-42 339 0
-42 -296 0
-42 -295 0
43 -216 279 25 0
43 -216 -25 -44 0
43 216 -279 25 0
43 216 -25 44 0
-43 216 -25 -44 0
-43 -216 -279 25 0
-43 -216 -25 44 0
-43 216 279 25 0
44 -303 336 0
44 -304 336 0
-44 -336 0
-44 303 304 0
45 218 46 -47 -54 0
45 -218 -46 -47 -54 0
-45 54 0
-45 -218 46 0
-45 47 0
-45 218 -46 0
46 -281 6 0
-46 281 0
-46 -6 0
47 -30 48 -50 0
47 30 -49 -50 0
-47 50 0
-47 30 49 0
-47 -30 -48 0
48 -265 -280 0
48 280 29 0
-48 265 -280 0
-48 280 -29 0
49 -258 -321 0
49 258 321 0
-49 258 -321 0
-49 -258 321 0
50 51 53 0
50 -52 53 0
50 20 53 0
-50 -53 0
-50 -20 -51 52 0
51 -328 337 -338 0
-51 328 0
-51 -337 0
-51 338 0
52 -267 -303 0
52 267 -268 303 -304 0
52 267 268 303 304 0
-52 -267 303 0
-52 267 -268 304 0
-52 267 -303 0
-52 268 303 -304 0
53 281 -6 23 0
53 -257 -281 -6 0
-53 6 0
-53 257 -281 0
-53 281 -23 0
54 55 -57 89 -94 0
-54 57 0
-54 -89 0
-54 -55 0
-54 94 0
55 -271 334 0
55 271 -334 40 0
55 271 -334 56 0
-55 -271 -334 0
-55 271 334 0
-55 271 -40 -56 0
56 295 296 0
-56 -295 0
-56 -296 0
57 -58 -68 80 86 0
-57 68 0
-57 -86 0
-57 58 0
-57 -80 0
58 59 61 63 67 0
58 -59 -61 63 67 0
-58 -63 0
-58 -59 61 0
-58 -67 0
-58 59 -61 0
59 322 -60 0
59 -322 60 0
-59 -322 -60 0
-59 322 60 0
60 323 -324 0
-60 -323 0
-60 324 0
61 259 -62 0
61 -259 62 0
-61 -259 -62 0
-61 259 62 0
62 260 -261 0
-62 -260 0
-62 261 0
63 -64 -65 -66 0
-63 64 0
-63 65 0
-63 66 0
64 322 -323 0
64 -322 323 324 0
-64 -322 -323 0
-64 323 -324 0
-64 322 323 0
65 297 -298 332 -333 0
-65 298 0
-65 -332 0
-65 -297 0
-65 333 0
66 -309 333 0
66 310 -332 0
66 310 333 0
66 -309 -332 0
-66 309 -310 0
-66 332 -333 0
67 -269 332 0
67 269 -270 333 0
67 269 -332 0
67 270 332 -333 0
-67 -269 -332 0
-67 269 -270 332 -333 0
-67 269 270 332 333 0
68 69 70 -71 -74 0
68 -69 -70 -71 -74 0
-68 74 0
-68 -69 70 0
-68 71 0
-68 69 -70 0
69 -325 -326 0
69 -325 -327 0
-69 325 0
-69 326 327 0
70 -262 -263 0
70 -262 -264 0
-70 262 0
-70 263 264 0
71 -228 -72 0
71 -234 -73 0
71 -228 -234 0
71 -72 -73 0
-71 234 72 0
-71 228 73 0
72 -235 -298 0
72 235 298 0
-72 235 -298 0
-72 -235 298 0
73 -229 -292 0
73 229 292 0
-73 229 -292 0
-73 -229 292 0
74 -341 -75 -76 -77 0
-74 77 0
-74 341 0
-74 76 0
-74 75 0
75 -277 -340 0
75 277 340 0
-75 277 -340 0
-75 -277 340 0
76 -228 234 -291 297 0
76 228 -234 291 -297 0
76 228 234 291 297 0
76 -228 -234 -291 -297 0
-76 -228 291 0
-76 228 -291 0
-76 234 -297 0
-76 -234 297 0
77 -78 -79 0
-77 78 0
-77 79 0
78 -243 246 -306 309 0
78 243 -246 306 -309 0
78 243 246 306 309 0
78 -243 -246 -306 -309 0
-78 -243 306 0
-78 243 -306 0
-78 246 -309 0
-78 -246 309 0
79 -219 252 -282 315 0
79 219 -252 282 -315 0
79 219 252 282 315 0
79 -219 -252 -282 -315 0
-79 -219 282 0
-79 219 -282 0
-79 252 -315 0
-79 -252 315 0
80 -284 -81 84 0
80 284 -81 -84 0
80 285 -81 84 0
-80 81 0
-80 -284 -84 0
-80 284 -285 84 0
81 299 -332 -83 0
81 -299 332 -83 0
81 299 -82 -83 0
-81 83 0
-81 -299 -332 0
-81 299 332 82 0
82 300 -333 0
82 -300 333 0
-82 -300 -333 0
-82 300 333 0
83 325 -326 0
83 -325 326 327 0
-83 -325 -326 0
-83 326 -327 0
-83 325 326 0
84 325 -85 0
84 -325 85 0
-84 -325 -85 0
-84 325 85 0
85 326 -327 0
-85 -326 0
-85 327 0
86 284 285 -87 0
86 -284 59 -87 0
86 284 -59 -87 0
-86 87 0
-86 -284 -59 0
-86 284 -285 59 0
87 -64 -88 0
-87 64 0
-87 88 0
88 -297 332 0
88 297 -298 333 0
88 297 -332 0
88 298 332 -333 0
-88 -297 -332 0
-88 297 -298 332 -333 0
-88 297 298 332 333 0
89 245 -90 0
89 -245 90 0
-89 -245 -90 0
-89 245 90 0
90 -308 -91 0
90 -282 91 0
-90 282 91 0
-90 308 -91 0
91 -283 -320 92 93 0
-91 320 0
-91 -93 0
-91 283 0
-91 -92 0
92 291 292 0
-92 -291 0
-92 -292 0
93 313 -314 0
-93 -313 0
-93 314 0
94 -95 -106 -114 -122 0
-94 122 0
-94 95 0
-94 114 0
-94 106 0
95 64 -96 101 -102 0
95 -64 -96 -101 -102 0
-95 102 0
-95 -64 101 0
-95 96 0
-95 64 -101 0
96 -97 -98 -99 -100 0
-96 100 0
-96 97 0
-96 99 0
-96 98 0
97 -240 272 -303 335 0
97 240 -272 303 -335 0
97 240 272 303 335 0
97 -240 -272 -303 -335 0
-97 -240 303 0
-97 240 -303 0
-97 272 -335 0
-97 -272 335 0
98 -220 255 -283 318 0
98 220 -255 283 -318 0
98 220 255 283 318 0
98 -220 -255 -283 -318 0
-98 -220 283 0
-98 220 -283 0
-98 255 -318 0
-98 -255 318 0
99 -221 242 -284 305 0
99 221 -242 284 -305 0
99 221 242 284 305 0
99 -221 -242 -284 -305 0
-99 -221 284 0
-99 221 -284 0
-99 242 -305 0
-99 -242 305 0
100 -254 266 -317 329 0
100 254 -266 317 -329 0
100 254 266 317 329 0
100 -254 -266 -317 -329 0
-100 -254 317 0
-100 254 -317 0
-100 266 -329 0
-100 -266 329 0
101 259 -260 0
101 -259 260 261 0
-101 -259 -260 0
-101 260 -261 0
-101 259 260 0
102 -83 84 -103 104 0
102 83 -84 103 -104 0
102 83 84 103 104 0
102 -83 -84 -103 -104 0
-102 -83 103 0
-102 83 -103 0
-102 84 -104 0
-102 -84 104 0
103 262 -263 0
103 -262 263 264 0
-103 -262 -263 0
-103 263 -264 0
-103 262 263 0
104 262 -105 0
104 -262 105 0
-104 -262 -105 0
-104 262 105 0
105 263 -264 0
-105 -263 0
-105 264 0
106 -107 -110 -111 112 0
106 -107 110 111 112 0
-106 -112 0
-106 -110 111 0
-106 107 0
-106 110 -111 0
107 -240 93 108 0
107 -240 -93 -108 0
107 93 108 -109 0
107 -93 -108 -109 0
-107 -93 108 0
-107 93 -108 0
-107 240 109 0
108 250 -251 0
-108 -250 0
-108 251 0
109 -241 -304 0
109 241 304 0
-109 241 -304 0
-109 -241 304 0
110 255 -256 0
-110 -255 0
-110 256 0
111 318 -319 0
-111 -318 0
-111 319 0
112 56 -113 0
112 301 -336 56 0
-112 -56 0
-112 -301 113 0
-112 336 113 0
113 -279 302 0
-113 279 0
-113 -302 0
114 -246 115 -117 0
114 115 -116 -117 0
-114 117 0
-114 -115 0
-114 246 116 0
115 236 -299 0
115 236 -237 300 0
-115 -236 0
-115 299 -300 0
-115 237 299 0
116 -247 -310 0
116 247 310 0
-116 247 -310 0
-116 -247 310 0
117 118 -120 -121 0
117 -119 120 121 0
117 118 120 121 0
117 -119 -120 -121 0
-117 120 -121 0
-117 -120 121 0
-117 -118 119 0
118 -322 -323 0
118 -322 -324 0
-118 322 0
-118 323 324 0
119 -259 -260 0
119 -259 -261 0
-119 259 0
-119 260 261 0
120 248 249 0
-120 -248 0
-120 -249 0
121 311 312 0
-121 -311 0
-121 -312 0
122 123 124 -125 -130 0
122 -123 -124 -125 -130 0
-122 130 0
-122 -123 124 0
-122 125 0
-122 123 -124 0
123 313 314 0
-123 -313 0
-123 -314 0
124 250 251 0
-124 -250 0
-124 -251 0
125 126 127 -128 -129 0
125 -126 -127 -128 -129 0
125 126 127 128 129 0
125 -126 -127 128 129 0
-125 126 -127 0
-125 -126 127 0
-125 128 -129 0
-125 -128 129 0
126 215 277 0
-126 -215 0
-126 -277 0
127 278 340 0
-127 -278 0
-127 -340 0
128 248 -249 0
-128 -248 0
-128 249 0
129 311 -312 0
-129 -311 0
-129 312 0
130 131 132 133 -134 0
130 131 -132 -133 -134 0
-130 134 0
-130 -132 133 0
-130 -131 0
-130 132 -133 0
131 -236 299 0
131 237 299 -300 0
-131 -299 0
-131 236 -237 0
-131 236 300 0
132 252 -253 0
-132 -252 0
-132 253 0
133 315 -316 0
-133 -315 0
-133 316 0
134 119 135 136 0
134 -118 -135 -136 0
134 -118 135 136 0
134 119 -135 -136 0
-134 135 -136 0
-134 -135 136 0
-134 118 -119 0
135 284 285 0
-135 -284 0
-135 -285 0
136 221 222 0
-136 -221 0
-136 -222 0
137 26 138 -142 0
137 -26 -139 -142 0
-137 142 0
-137 26 -138 0
-137 -26 139 0
138 -273 336 0
138 273 -336 40 0
138 273 -336 42 0
-138 -273 -336 0
-138 273 336 0
-138 273 -40 -42 0
139 -140 141 0
139 -273 -141 0
-139 140 141 0
-139 273 -141 0
140 -273 -336 0
140 273 336 0
-140 273 -336 0
-140 -273 336 0
141 303 304 -337 0
-141 337 0
-141 -304 0
-141 -303 0
142 -143 -144 0
142 -20 -51 -144 0
-142 144 0
-142 20 143 0
-142 51 143 0
143 -267 -330 0
143 267 -268 330 -331 0
143 267 268 330 331 0
-143 -267 330 0
-143 267 -268 331 0
-143 267 -330 0
-143 268 330 -331 0
144 30 145 -148 0
144 -30 145 -147 0
-144 -145 0
-144 -30 147 0
-144 30 148 0
145 337 146 0
145 26 146 0
145 276 -337 -26 0
-145 337 -146 0
-145 26 -146 0
-145 -276 -337 -26 0
146 -276 -339 0
146 276 339 0
-146 276 -339 0
-146 -276 339 0
147 217 280 -49 0
147 217 258 -280 0
-147 -217 0
-147 -258 -280 0
-147 280 49 0
148 -217 -280 0
148 217 280 0
-148 217 -280 0
-148 -217 280 0
149 61 104 -150 153 0
-149 -61 0
-149 -153 0
-149 150 0
-149 -104 0
150 -151 -152 -124 -126 0
-150 126 0
-150 151 0
-150 124 0
-150 152 0
151 259 260 0
-151 -259 0
-151 -260 0
152 262 263 0
-152 -262 0
-152 -263 0
153 -267 269 0
153 267 268 -269 0
153 268 269 -270 0
-153 267 -268 0
-153 -267 -269 0
-153 267 269 270 0
154 -155 -159 -161 -162 0
-154 162 0
-154 155 0
-154 161 0
-154 159 0
155 156 -157 0
155 269 -270 -157 0
-155 157 0
-155 -269 -156 0
-155 270 -156 0
156 267 -268 0
-156 -267 0
-156 268 0
157 274 275 276 -158 0
-157 158 0
-157 -276 0
-157 -274 0
-157 -275 0
158 266 271 272 273 0
-158 -273 0
-158 -272 0
-158 -266 0
-158 -271 0
159 248 249 -136 -160 0
-159 -248 0
-159 160 0
-159 136 0
-159 -249 0
160 216 217 218 220 0
-160 -220 0
-160 -218 0
-160 -216 0
-160 -217 0
161 256 257 258 265 0
-161 -265 0
-161 -258 0
-161 -256 0
-161 -257 0
162 252 253 254 255 0
-162 -255 0
-162 -254 0
-162 -252 0
-162 -253 0
163 -96 -164 -175 -189 0
-163 189 0
-163 96 0
-163 175 0
-163 164 0
164 -165 -168 -169 -172 0
-164 172 0
-164 165 0
-164 169 0
-164 168 0
165 224 287 166 167 0
165 -224 -287 166 167 0
-165 -166 0
-165 -224 287 0
-165 -167 0
-165 224 -287 0
166 -261 324 0
-166 261 0
-166 -324 0
167 226 -289 0
-167 -226 0
-167 289 0
168 -230 231 -293 294 0
168 230 -231 293 -294 0
168 230 231 293 294 0
168 -230 -231 -293 -294 0
-168 -230 293 0
-168 230 -293 0
-168 231 -294 0
-168 -231 294 0
169 239 302 170 171 0
169 -239 -302 170 171 0
-169 -170 0
-169 -239 302 0
-169 -171 0
-169 239 -302 0
170 -244 307 0
-170 244 0
-170 -307 0
171 225 -288 0
-171 -225 0
-171 288 0
172 259 322 173 174 0
172 -259 -322 173 174 0
-172 -173 0
-172 -259 322 0
-172 -174 0
-172 259 -322 0
173 -226 289 0
-173 226 0
-173 -289 0
174 244 -307 0
-174 -244 0
-174 307 0
175 -176 -180 -183 -186 0
-175 186 0
-175 176 0
-175 183 0
-175 180 0
176 316 177 -178 0
176 -253 177 -178 0
-176 178 0
-176 -177 0
-176 253 -316 0
177 -237 300 0
-177 237 0
-177 -300 0
178 -296 179 0
178 233 179 0
-178 -179 0
-178 -233 296 0
179 237 -300 0
-179 -237 0
-179 300 0
180 262 325 181 182 0
180 -262 -325 181 182 0
-180 -181 0
-180 -262 325 0
-180 -182 0
-180 262 -325 0
181 260 -323 0
-181 -260 0
-181 323 0
182 -253 316 0
-182 253 0
-182 -316 0
183 249 312 184 185 0
183 -249 -312 184 185 0
-183 -184 0
-183 -249 312 0
-183 -185 0
-183 249 -312 0
184 263 -326 0
-184 -263 0
-184 326 0
185 261 -324 0
-185 -261 0
-185 324 0
186 245 308 187 188 0
186 -245 -308 187 188 0
-186 -187 0
-186 -245 308 0
-186 -188 0
-186 245 -308 0
187 233 -296 0
-187 -233 0
-187 296 0
188 -263 326 0
-188 263 0
-188 -326 0
189 -190 -78 -79 -191 0
-189 191 0
-189 190 0
-189 79 0
-189 78 0
190 -269 270 -332 333 0
190 269 -270 332 -333 0
190 269 270 332 333 0
190 -269 -270 -332 -333 0
-190 -269 332 0
-190 269 -332 0
-190 270 -333 0
-190 -270 333 0
191 -327 -192 0
191 264 -192 0
-191 192 0
-191 -264 327 0
192 225 250 0
192 -288 -313 0
192 225 -313 0
192 250 -288 0
-192 -225 288 0
-192 -250 313 0
193 -194 -205 -213 -214 0
-193 214 0
-193 194 0
-193 213 0
-193 205 0
194 -76 -195 -201 -202 0
-194 202 0
-194 76 0
-194 201 0
-194 195 0
195 -23 -196 -197 -198 0
-195 198 0
-195 23 0
-195 197 0
-195 196 0
196 -271 -334 0
196 271 334 0
-196 271 -334 0
-196 -271 334 0
197 -215 222 -278 285 0
197 215 -222 278 -285 0
197 215 222 278 285 0
197 -215 -222 -278 -285 0
-197 -215 278 0
-197 215 -278 0
-197 222 -285 0
-197 -222 285 0
198 218 281 -75 -199 0
198 -218 -281 -75 -199 0
-198 199 0
-198 -218 281 0
-198 75 0
-198 218 -281 0
199 -267 -330 -200 0
199 267 330 -200 0
-199 200 0
-199 -267 330 0
-199 267 -330 0
200 -216 -279 0
200 216 279 0
-200 216 -279 0
-200 -216 279 0
201 -232 251 -295 314 0
201 232 -251 295 -314 0
201 232 251 295 314 0
201 -232 -251 -295 -314 0
-201 -232 295 0
-201 232 -295 0
-201 251 -314 0
-201 -251 314 0
202 -203 -49 -73 -204 0
-202 204 0
-202 203 0
-202 73 0
-202 49 0
203 -275 -338 0
203 275 338 0
-203 275 -338 0
-203 -275 338 0
204 -268 -331 0
204 268 331 0
-204 268 -331 0
-204 -268 331 0
205 -206 -209 -210 -211 0
-205 211 0
-205 206 0
-205 210 0
-205 209 0
206 248 311 -207 208 0
206 -248 -311 -207 208 0
-206 -208 0
-206 -248 311 0
-206 207 0
-206 248 -311 0
207 -227 256 -290 319 0
207 227 -256 290 -319 0
207 227 256 290 319 0
207 -227 -256 -290 -319 0
-207 -227 290 0
-207 227 -290 0
-207 256 -319 0
-207 -256 319 0
208 238 -301 0
208 -238 301 0
-208 -238 -301 0
-208 238 301 0
209 -264 286 0
209 -223 327 0
209 -223 -264 0
209 286 327 0
-209 264 -327 0
-209 223 -286 0
210 236 260 0
210 -299 -323 0
210 236 -323 0
210 260 -299 0
-210 -236 299 0
-210 -260 323 0
211 -250 -342 -212 0
211 313 -342 -212 0
-211 212 0
-211 342 0
-211 250 -313 0
212 -236 -286 0
212 223 299 0
212 223 -236 0
212 -286 299 0
-212 -223 286 0
-212 236 -299 0
213 -37 -140 -146 -148 0
-213 148 0
-213 37 0
-213 146 0
-213 140 0
214 -29 -72 -109 -116 0
-214 116 0
-214 29 0
-214 109 0
-214 72 0
408 0
2 3 0
-2 -3 0
2 0

